datasets/2-dimensional/CL_02_25_10.vbp
2
1000 1000 
25
414 671 30
319 592 72
563 132 4
36 843 88
959 618 54
889 676 64
715 575 90
658 202 26
275 780 94
453 864 28
416 344 72
718 442 49
250 712 54
232 45 19
221 661 28
105 118 61
106 304 84
780 440 23
18 83 67
39 121 53
399 776 54
988 605 16
30 496 9
76 671 54
19 686 77
