datasets/2-dimensional/CL_02_25_10.txt
1000 1000 
0 30 414 671 
1 72 319 592 
2 4 563 132 
3 88 36 843 
4 54 959 618 
5 64 889 676 
6 90 715 575 
7 26 658 202 
8 94 275 780 
9 28 453 864 
10 72 416 344 
11 49 718 442 
12 54 250 712 
13 19 232 45 
14 28 221 661 
15 61 105 118 
16 84 106 304 
17 23 780 440 
18 67 18 83 
19 53 39 121 
20 54 399 776 
21 16 988 605 
22 9 30 496 
23 54 76 671 
24 77 19 686 
